
--- Job sourceFile.gms Start 08/09/24 17:43:28 47.4.0 838fd78c WEX-WEI x86 64bit/MS Windows
--- Applying:
    C:\Program Files (x86)\GAMS\47\gmsprmNT.txt
--- GAMS Parameters defined
    Input C:\projects\itStud9Lp2024\gamsWorkSpace\sourceFile.gms
    PageSize 0
    ScrDir C:\projects\itStud9Lp2024\gamsWorkSpace\225a\
    SysDir "C:\Program Files (x86)\GAMS\47\"
    LogOption 3
    ErrMsg 1
    ErrorLog 99
    IDE 1
    LstTitleLeftAligned 1
Licensee: Course License                                 S240418|0002AO-GEN
          Stiftung Universitaet Hildesheim                          DCE3433
          C:\Program Files (x86)\GAMS\47\gamslice.txt
          License Admin: Julia Rieck, rieck@bwl.uni-hildesheim.de          
          Course license for use within the course and related course work
          The evaluation period of the license will expire on Oct 15, 2024
Processor information: 1 socket(s), 6 core(s), and 12 thread(s) available
GAMS 47.4.0   Copyright (C) 1987-2024 GAMS Development. All rights reserved
--- Starting compilation
--- sourceFile.gms(182) 3 Mb
--- Starting execution: elapsed 0:00:00.006
--- sourceFile.gms(108) 4 Mb
--- Generating MIP model optModel
--- sourceFile.gms(182) 10 Mb
---   1 rows  59,586 columns  59,586 non-zeroes
--- Range statistics (absolute non-zero finite values)
--- RHS       [min, max] : [        NA,        NA] - Zero values observed as well
--- Bound     [min, max] : [        NA,        NA]
--- Matrix    [min, max] : [ 1.000E+00, 1.000E+00]
--- Executing CPLEX (Solvelink=2): elapsed 0:00:00.576

IBM ILOG CPLEX   47.4.0 838fd78c Jul 30, 2024          WEI x86 64bit/MS Window

--- GAMS/CPLEX Link licensed for continuous and discrete problems.
--- GMO setup time: 0.00s
--- Space for names approximately 1.76 Mb
--- Use option 'names no' to turn use of names off
--- GMO memory 10.05 Mb (peak 10.50 Mb)
--- Dictionary memory 0.00 Mb
--- Cplex 22.1.1.0 link memory 1.14 Mb (peak 4.04 Mb)
--- Starting Cplex

Version identifier: 22.1.1.0 | 2022-11-27 | 9160aff4d
CPXPARAM_Advance                                 0
CPXPARAM_Simplex_Display                         2
CPXPARAM_MIP_Display                             4
CPXPARAM_MIP_Pool_Capacity                       0
CPXPARAM_MIP_Tolerances_AbsMIPGap                0
Parallel mode: deterministic, using up to 12 threads for concurrent optimization:
 * Starting dual Simplex on 1 thread...
 * Starting Barrier on 9 threads...
 * Starting primal Simplex on 1 thread...
 * Starting Sifting on 1 thread...
Dual infeasible due to empty column 'vQuali_ps(p1,OP)'.
Presolve time = 0.00 sec. (3.98 ticks)

--- LP status (4): unbounded or infeasible.
--- Cplex Time: 0.02sec (det. 100.40 ticks)

*** WARNING: Presolve found the problem infeasible or unbounded
--- Cplex diagnoses the model to be either infeasible or unbounded.
--- There is no such GAMS Model Status so returning with a status of infeasible.
--- Model has been proven to be either infeasible or unbounded
--- Reading solution for model optModel
*** Status: Normal completion
--- Job sourceFile.gms Stop 08/09/24 17:43:29 elapsed 0:00:00.677
